<number of tasks>
100

<cycle time>
1000

<order strength>
0.203


<task times>
1 79
2 60
3 332
4 179
5 47
6 346
7 25
8 245
9 188
10 150
11 131
12 85
13 239
14 74
15 68
16 49
17 107
18 78
19 84
20 156
21 187
22 133
23 35
24 144
25 46
26 150
27 68
28 133
29 99
30 298
31 23
32 61
33 215
34 150
35 30
36 135
37 238
38 122
39 199
40 42
41 174
42 67
43 91
44 107
45 26
46 105
47 71
48 22
49 138
50 178
51 265
52 80
53 97
54 85
55 121
56 28
57 79
58 195
59 160
60 163
61 182
62 53
63 132
64 59
65 105
66 170
67 83
68 186
69 92
70 262
71 274
72 218
73 255
74 58
75 51
76 272
77 175
78 302
79 110
80 181
81 33
82 90
83 67
84 220
85 135
86 149
87 248
88 204
89 73
90 41
91 76
92 286
93 58
94 158
95 173
96 117
97 232
98 110
99 108
100 55

<precedence relations>
1,44
2,44
3,44
4,44
5,45
6,73
7,73
8,73
9,73
10,13
10,14
10,18
10,73
11,15
11,16
11,17
13,49
14,43
15,44
16,45
17,22
17,23
17,25
17,28
17,29
18,19
18,20
18,21
18,24
18,26
18,27
19,49
20,43
21,43
22,43
23,43
24,44
25,44
26,44
27,45
28,31
28,33
28,35
28,39
29,30
29,32
29,34
29,36
29,37
29,38
30,43
31,43
32,44
33,44
34,44
35,45
36,40
36,47
38,41
38,42
38,46
39,48
40,49
41,49
42,49
43,50
43,51
43,52
43,53
44,54
44,55
44,56
44,57
44,58
44,67
45,49
45,59
45,60
45,61
45,62
45,63
45,64
45,66
46,73
48,65
49,68
49,69
49,70
49,71
49,72
50,76
51,74
57,75
63,100
65,73
72,84
73,77
73,78
73,79
73,80
73,81
73,82
73,83
73,85
73,86
78,88
82,87
84,90
85,93
85,96
88,89
89,90
89,91
89,92
89,93
89,94
90,95
90,96
90,100
91,97
92,99
94,98

<end>
